* ENCODING=ISO-8859-1
NAME          ilog.cplex
ROWS
 N  obj1    
 G  c1      
 G  c2      
 G  c3      
COLUMNS
    x1        obj1                         0.12
    x1        c1                             60
    x1        c2                             12
    x1        c3                             10
    x2        obj1                         0.15
    x2        c1                             60
    x2        c2                              6
    x2        c3                             30
RHS
    rhs       c1                            300
    rhs       c2                             36
    rhs       c3                             90
ENDATA
